2 27 38 3 4 58 23 57 82 84 12 14 85 71 78 96 
20 100 1 97 33 7 56 91 36 19 76 80 51 48 
30 72 6 65 95 31 55 26 39 53 60 88 16 79 9 11 77 
24 74 99 62 29 64 92 94 68 28 46 44 17 25 43 21 
93 67 63 5 66 75 32 69 49 98 35 54 40 86 59 50 15 45 47 73 52 42 8 10 
22 61 89 37 34 83 18 70 13 41 81 90 87 

